# Objective value = 45
WA1n 0
WA1p 0
WA2n 1
WA2p 0
WB1n 0
WB1p 0
WB2n 0
WB2p 1
WC1n 0
WC1p 0
WC2n 0
WC2p 1
WD1n 0
WD1p 0
WD2n 0
WD2p 1
WE1n 0
WE1p 0
WE2n 0
WE2p 1
WF1n 0
WF1p 0
WF2n 0
WF2p 1
WG1n 3
WG1p 0
WH1n 0
WH1p 3
WI1n 0
WI1p 3
WJ1n 9
WJ1p 0
WJ2n 1
WJ2p 0
WK1n 9
WK1p 0
WK2n 1
WK2p 0
WT1n 0
WT1p 0
WT2n 1
WT2p 0
5 7
a 0
b 0
c 0
d 1
e 0
f 1
g 0
h 1
i 0
j 1
k 0
l 1
m 0
n 1
o 1
p 0
q 0
r 0
s 0
t 0
u 0
